; phase1: complete schedule
(set-logic QF_LIA)
(set-option :produce-models true)
(declare-fun index_0_0_0 () Bool)
(declare-fun index_0_0_1 () Bool)
(declare-fun index_0_0_2 () Bool)
(declare-fun home_0_0 () Int)
(declare-fun away_0_0 () Int)
(declare-fun index_0_1_0 () Bool)
(declare-fun index_0_1_1 () Bool)
(declare-fun index_0_1_2 () Bool)
(declare-fun home_0_1 () Int)
(declare-fun away_0_1 () Int)
(declare-fun index_0_2_0 () Bool)
(declare-fun index_0_2_1 () Bool)
(declare-fun index_0_2_2 () Bool)
(declare-fun home_0_2 () Int)
(declare-fun away_0_2 () Int)
(declare-fun index_0_3_0 () Bool)
(declare-fun index_0_3_1 () Bool)
(declare-fun index_0_3_2 () Bool)
(declare-fun home_0_3 () Int)
(declare-fun away_0_3 () Int)
(declare-fun index_0_4_0 () Bool)
(declare-fun index_0_4_1 () Bool)
(declare-fun index_0_4_2 () Bool)
(declare-fun home_0_4 () Int)
(declare-fun away_0_4 () Int)
(declare-fun index_1_0_0 () Bool)
(declare-fun index_1_0_1 () Bool)
(declare-fun index_1_0_2 () Bool)
(declare-fun home_1_0 () Int)
(declare-fun away_1_0 () Int)
(declare-fun index_1_1_0 () Bool)
(declare-fun index_1_1_1 () Bool)
(declare-fun index_1_1_2 () Bool)
(declare-fun home_1_1 () Int)
(declare-fun away_1_1 () Int)
(declare-fun index_1_2_0 () Bool)
(declare-fun index_1_2_1 () Bool)
(declare-fun index_1_2_2 () Bool)
(declare-fun home_1_2 () Int)
(declare-fun away_1_2 () Int)
(declare-fun index_1_3_0 () Bool)
(declare-fun index_1_3_1 () Bool)
(declare-fun index_1_3_2 () Bool)
(declare-fun home_1_3 () Int)
(declare-fun away_1_3 () Int)
(declare-fun index_1_4_0 () Bool)
(declare-fun index_1_4_1 () Bool)
(declare-fun index_1_4_2 () Bool)
(declare-fun home_1_4 () Int)
(declare-fun away_1_4 () Int)
(declare-fun index_2_0_0 () Bool)
(declare-fun index_2_0_1 () Bool)
(declare-fun index_2_0_2 () Bool)
(declare-fun home_2_0 () Int)
(declare-fun away_2_0 () Int)
(declare-fun index_2_1_0 () Bool)
(declare-fun index_2_1_1 () Bool)
(declare-fun index_2_1_2 () Bool)
(declare-fun home_2_1 () Int)
(declare-fun away_2_1 () Int)
(declare-fun index_2_2_0 () Bool)
(declare-fun index_2_2_1 () Bool)
(declare-fun index_2_2_2 () Bool)
(declare-fun home_2_2 () Int)
(declare-fun away_2_2 () Int)
(declare-fun index_2_3_0 () Bool)
(declare-fun index_2_3_1 () Bool)
(declare-fun index_2_3_2 () Bool)
(declare-fun home_2_3 () Int)
(declare-fun away_2_3 () Int)
(declare-fun index_2_4_0 () Bool)
(declare-fun index_2_4_1 () Bool)
(declare-fun index_2_4_2 () Bool)
(declare-fun home_2_4 () Int)
(declare-fun away_2_4 () Int)
(assert (= (+ (ite index_0_0_0 1 0) (ite index_0_0_1 1 0) (ite index_0_0_2 1 0)) 1))
(assert (= (+ (ite index_0_1_0 1 0) (ite index_0_1_1 1 0) (ite index_0_1_2 1 0)) 1))
(assert (= (+ (ite index_0_2_0 1 0) (ite index_0_2_1 1 0) (ite index_0_2_2 1 0)) 1))
(assert (= (+ (ite index_0_3_0 1 0) (ite index_0_3_1 1 0) (ite index_0_3_2 1 0)) 1))
(assert (= (+ (ite index_0_4_0 1 0) (ite index_0_4_1 1 0) (ite index_0_4_2 1 0)) 1))
(assert (= (+ (ite index_1_0_0 1 0) (ite index_1_0_1 1 0) (ite index_1_0_2 1 0)) 1))
(assert (= (+ (ite index_1_1_0 1 0) (ite index_1_1_1 1 0) (ite index_1_1_2 1 0)) 1))
(assert (= (+ (ite index_1_2_0 1 0) (ite index_1_2_1 1 0) (ite index_1_2_2 1 0)) 1))
(assert (= (+ (ite index_1_3_0 1 0) (ite index_1_3_1 1 0) (ite index_1_3_2 1 0)) 1))
(assert (= (+ (ite index_1_4_0 1 0) (ite index_1_4_1 1 0) (ite index_1_4_2 1 0)) 1))
(assert (= (+ (ite index_2_0_0 1 0) (ite index_2_0_1 1 0) (ite index_2_0_2 1 0)) 1))
(assert (= (+ (ite index_2_1_0 1 0) (ite index_2_1_1 1 0) (ite index_2_1_2 1 0)) 1))
(assert (= (+ (ite index_2_2_0 1 0) (ite index_2_2_1 1 0) (ite index_2_2_2 1 0)) 1))
(assert (= (+ (ite index_2_3_0 1 0) (ite index_2_3_1 1 0) (ite index_2_3_2 1 0)) 1))
(assert (= (+ (ite index_2_4_0 1 0) (ite index_2_4_1 1 0) (ite index_2_4_2 1 0)) 1))
(assert (= (+ (ite index_0_0_0 1 0) (ite index_1_0_0 1 0) (ite index_2_0_0 1 0)) 1))
(assert (= (+ (ite index_0_1_0 1 0) (ite index_1_1_0 1 0) (ite index_2_1_0 1 0)) 1))
(assert (= (+ (ite index_0_2_0 1 0) (ite index_1_2_0 1 0) (ite index_2_2_0 1 0)) 1))
(assert (= (+ (ite index_0_3_0 1 0) (ite index_1_3_0 1 0) (ite index_2_3_0 1 0)) 1))
(assert (= (+ (ite index_0_4_0 1 0) (ite index_1_4_0 1 0) (ite index_2_4_0 1 0)) 1))
(assert (= (+ (ite index_0_0_1 1 0) (ite index_1_0_1 1 0) (ite index_2_0_1 1 0)) 1))
(assert (= (+ (ite index_0_1_1 1 0) (ite index_1_1_1 1 0) (ite index_2_1_1 1 0)) 1))
(assert (= (+ (ite index_0_2_1 1 0) (ite index_1_2_1 1 0) (ite index_2_2_1 1 0)) 1))
(assert (= (+ (ite index_0_3_1 1 0) (ite index_1_3_1 1 0) (ite index_2_3_1 1 0)) 1))
(assert (= (+ (ite index_0_4_1 1 0) (ite index_1_4_1 1 0) (ite index_2_4_1 1 0)) 1))
(assert (= (+ (ite index_0_0_2 1 0) (ite index_1_0_2 1 0) (ite index_2_0_2 1 0)) 1))
(assert (= (+ (ite index_0_1_2 1 0) (ite index_1_1_2 1 0) (ite index_2_1_2 1 0)) 1))
(assert (= (+ (ite index_0_2_2 1 0) (ite index_1_2_2 1 0) (ite index_2_2_2 1 0)) 1))
(assert (= (+ (ite index_0_3_2 1 0) (ite index_1_3_2 1 0) (ite index_2_3_2 1 0)) 1))
(assert (= (+ (ite index_0_4_2 1 0) (ite index_1_4_2 1 0) (ite index_2_4_2 1 0)) 1))
(assert (or (and index_0_0_0 (= home_0_0 1) (= away_0_0 6)) (and index_0_0_1 (= home_0_0 2) (= away_0_0 5)) (and index_0_0_2 (= home_0_0 3) (= away_0_0 4))))
(assert (or (and index_0_1_0 (= home_0_1 2) (= away_0_1 6)) (and index_0_1_1 (= home_0_1 1) (= away_0_1 3)) (and index_0_1_2 (= home_0_1 4) (= away_0_1 5))))
(assert (or (and index_0_2_0 (= home_0_2 3) (= away_0_2 6)) (and index_0_2_1 (= home_0_2 2) (= away_0_2 4)) (and index_0_2_2 (= home_0_2 1) (= away_0_2 5))))
(assert (or (and index_0_3_0 (= home_0_3 4) (= away_0_3 6)) (and index_0_3_1 (= home_0_3 3) (= away_0_3 5)) (and index_0_3_2 (= home_0_3 1) (= away_0_3 2))))
(assert (or (and index_0_4_0 (= home_0_4 5) (= away_0_4 6)) (and index_0_4_1 (= home_0_4 1) (= away_0_4 4)) (and index_0_4_2 (= home_0_4 2) (= away_0_4 3))))
(assert (or (and index_1_0_0 (= home_1_0 1) (= away_1_0 6)) (and index_1_0_1 (= home_1_0 2) (= away_1_0 5)) (and index_1_0_2 (= home_1_0 3) (= away_1_0 4))))
(assert (or (and index_1_1_0 (= home_1_1 2) (= away_1_1 6)) (and index_1_1_1 (= home_1_1 1) (= away_1_1 3)) (and index_1_1_2 (= home_1_1 4) (= away_1_1 5))))
(assert (or (and index_1_2_0 (= home_1_2 3) (= away_1_2 6)) (and index_1_2_1 (= home_1_2 2) (= away_1_2 4)) (and index_1_2_2 (= home_1_2 1) (= away_1_2 5))))
(assert (or (and index_1_3_0 (= home_1_3 4) (= away_1_3 6)) (and index_1_3_1 (= home_1_3 3) (= away_1_3 5)) (and index_1_3_2 (= home_1_3 1) (= away_1_3 2))))
(assert (or (and index_1_4_0 (= home_1_4 5) (= away_1_4 6)) (and index_1_4_1 (= home_1_4 1) (= away_1_4 4)) (and index_1_4_2 (= home_1_4 2) (= away_1_4 3))))
(assert (or (and index_2_0_0 (= home_2_0 1) (= away_2_0 6)) (and index_2_0_1 (= home_2_0 2) (= away_2_0 5)) (and index_2_0_2 (= home_2_0 3) (= away_2_0 4))))
(assert (or (and index_2_1_0 (= home_2_1 2) (= away_2_1 6)) (and index_2_1_1 (= home_2_1 1) (= away_2_1 3)) (and index_2_1_2 (= home_2_1 4) (= away_2_1 5))))
(assert (or (and index_2_2_0 (= home_2_2 3) (= away_2_2 6)) (and index_2_2_1 (= home_2_2 2) (= away_2_2 4)) (and index_2_2_2 (= home_2_2 1) (= away_2_2 5))))
(assert (or (and index_2_3_0 (= home_2_3 4) (= away_2_3 6)) (and index_2_3_1 (= home_2_3 3) (= away_2_3 5)) (and index_2_3_2 (= home_2_3 1) (= away_2_3 2))))
(assert (or (and index_2_4_0 (= home_2_4 5) (= away_2_4 6)) (and index_2_4_1 (= home_2_4 1) (= away_2_4 4)) (and index_2_4_2 (= home_2_4 2) (= away_2_4 3))))
(assert (<= (+ (ite index_0_0_0 1 0) (ite index_0_1_1 1 0) (ite index_0_2_2 1 0) (ite index_0_3_2 1 0) (ite index_0_4_1 1 0)) 2))
(assert (<= (+ (ite index_1_0_0 1 0) (ite index_1_1_1 1 0) (ite index_1_2_2 1 0) (ite index_1_3_2 1 0) (ite index_1_4_1 1 0)) 2))
(assert (<= (+ (ite index_2_0_0 1 0) (ite index_2_1_1 1 0) (ite index_2_2_2 1 0) (ite index_2_3_2 1 0) (ite index_2_4_1 1 0)) 2))
(assert (<= (+ (ite index_0_0_1 1 0) (ite index_0_1_0 1 0) (ite index_0_2_1 1 0) (ite index_0_3_2 1 0) (ite index_0_4_2 1 0)) 2))
(assert (<= (+ (ite index_1_0_1 1 0) (ite index_1_1_0 1 0) (ite index_1_2_1 1 0) (ite index_1_3_2 1 0) (ite index_1_4_2 1 0)) 2))
(assert (<= (+ (ite index_2_0_1 1 0) (ite index_2_1_0 1 0) (ite index_2_2_1 1 0) (ite index_2_3_2 1 0) (ite index_2_4_2 1 0)) 2))
(assert (<= (+ (ite index_0_0_2 1 0) (ite index_0_1_1 1 0) (ite index_0_2_0 1 0) (ite index_0_3_1 1 0) (ite index_0_4_2 1 0)) 2))
(assert (<= (+ (ite index_1_0_2 1 0) (ite index_1_1_1 1 0) (ite index_1_2_0 1 0) (ite index_1_3_1 1 0) (ite index_1_4_2 1 0)) 2))
(assert (<= (+ (ite index_2_0_2 1 0) (ite index_2_1_1 1 0) (ite index_2_2_0 1 0) (ite index_2_3_1 1 0) (ite index_2_4_2 1 0)) 2))
(assert (<= (+ (ite index_0_0_2 1 0) (ite index_0_1_2 1 0) (ite index_0_2_1 1 0) (ite index_0_3_0 1 0) (ite index_0_4_1 1 0)) 2))
(assert (<= (+ (ite index_1_0_2 1 0) (ite index_1_1_2 1 0) (ite index_1_2_1 1 0) (ite index_1_3_0 1 0) (ite index_1_4_1 1 0)) 2))
(assert (<= (+ (ite index_2_0_2 1 0) (ite index_2_1_2 1 0) (ite index_2_2_1 1 0) (ite index_2_3_0 1 0) (ite index_2_4_1 1 0)) 2))
(assert (<= (+ (ite index_0_0_1 1 0) (ite index_0_1_2 1 0) (ite index_0_2_2 1 0) (ite index_0_3_1 1 0) (ite index_0_4_0 1 0)) 2))
(assert (<= (+ (ite index_1_0_1 1 0) (ite index_1_1_2 1 0) (ite index_1_2_2 1 0) (ite index_1_3_1 1 0) (ite index_1_4_0 1 0)) 2))
(assert (<= (+ (ite index_2_0_1 1 0) (ite index_2_1_2 1 0) (ite index_2_2_2 1 0) (ite index_2_3_1 1 0) (ite index_2_4_0 1 0)) 2))
(assert (<= (+ (ite index_0_0_0 1 0) (ite index_0_1_0 1 0) (ite index_0_2_0 1 0) (ite index_0_3_0 1 0) (ite index_0_4_0 1 0)) 2))
(assert (<= (+ (ite index_1_0_0 1 0) (ite index_1_1_0 1 0) (ite index_1_2_0 1 0) (ite index_1_3_0 1 0) (ite index_1_4_0 1 0)) 2))
(assert (<= (+ (ite index_2_0_0 1 0) (ite index_2_1_0 1 0) (ite index_2_2_0 1 0) (ite index_2_3_0 1 0) (ite index_2_4_0 1 0)) 2))
(assert index_0_0_0)
(check-sat)
(get-model)